unsat
(:max-memory         18.25
 :memory             18.15
 :nlsat-conflicts    2
 :nlsat-propagations 7
 :nlsat-stages       2
 :num-allocs         40218
 :rlimit-count       7991
 :time               0.00
 :total-time         0.01)
